p cnf 30 33
-1 15 25 0 
-2 20 25 0 
-1 15 25 0 
-3 13 18 26 0 
-4 10 26 0 
-1 15 26 0 
-5 8 14 19 -6 21 -7 11 12 27 0 
-8 5 14 19 25 0 
-9 -10 4 27 0 
-2 20 26 0 
-3 13 18 25 0 
-11 7 12 26 0 
-12 7 11 27 0 
-10 4 27 0 
-7 11 12 26 0 
-13 3 18 -14 5 8 19 26 0 
-15 1 25 0 
-16 -4 10 26 0 
-17 -18 3 13 -7 11 12 27 0 
-9 -4 10 26 0 
-19 5 8 14 25 0 
-20 2 25 0 
-11 7 12 25 0 
-7 11 12 27 0 
-21 6 26 0 
-22 25 0 
-1 15 -3 13 18 28 0 
-23 28 0 
-23 29 0 
-3 13 18 30 0 
-1 15 30 0 
-24 -2 20 30 0 
-23 -6 21 -7 11 12 27 0 
